nbObj= 100;
Capacity= 2646;
Profit =[ 64,91,77,88,49,92,51,24,53,53,51,86,38,11,55,72,47,68,90,57,93,19,70,64,14,91,33,48,12,42,89,66,75,55,95,65,89,35,31,31,78,23,58,57,23,103,18,11,60,49,57,95,57,69,48,12,101,22,102,102,53,80,109,69,24,46,76,54,70,96,74,89,108,22,35,72,66,95,25,67,33,23,103,32,81,92,85,71,103,76,15,98,97,65,108,63,100,73,106,60];
Weight =[ 54,81,67,78,39,82,41,14,43,43,41,76,28,1,45,62,37,58,80,47,83,9,60,54,4,81,23,38,2,32,79,56,65,45,85,55,79,25,21,21,68,13,48,47,13,93,8,1,50,39,47,85,47,59,38,2,91,12,92,92,43,70,99,59,14,36,66,44,60,86,64,79,98,12,25,62,56,85,15,57,23,13,93,22,71,82,75,61,93,66,5,88,87,55,98,53,90,63,96,50];
